c FILE /home/rafael/Documents/HappySet/MIHS/inputs/happygen/output/graph_scale_free_k10_p0.1_v100_20241127_083907.txt
c SOURCE This is a scale-free graph formed for the happy graph colouring problem.
c DESCRIPTION It was generated using the problem generator of Rhyd Lewis
c
c GRAPH STATS
c Seed                             = 2133668650
c Number of Nodes                  = 100
c Number of colours k              = 10
c Number of pre-assignments        = 10
c Number of links per new node     = 5
c Density                          = 0.0979798
c 
c The degrees of nodes 1 to 100, respectively, are as follows 
c [33, 30, 29, 28, 27, 23, 23, 23, 21, 20, 19, 18, 18, 17, 17, 16, 13, 13, 13, 13, 12, 12, 12, 12, 11, 11, 
c  10, 10, 10, 10, 10, 9, 9, 9, 9, 9, 8, 8, 8, 8, 8, 8, 8, 7, 7, 7, 7, 7, 7, 7, 7, 
c  7, 7, 7, 7, 7, 7, 7, 7, 7, 6, 6, 6, 6, 6, 6, 6, 6, 6, 6, 6, 6, 6, 6, 6, 6, 
c  5, 5, 5, 5, 5, 5, 5, 5, 5, 5, 5, 5, 5, 5, 5, 5, 5, 5, 5, 5, 5, 5, 5, 5] 
c  
p edge 100 485 10
e 1 2
e 1 3
e 1 4
e 1 5
e 1 6
e 1 8
e 1 9
e 1 10
e 1 11
e 1 13
e 1 18
e 1 19
e 1 26
e 1 31
e 1 32
e 1 37
e 1 41
e 1 42
e 1 45
e 1 46
e 1 50
e 1 53
e 1 59
e 1 65
e 1 66
e 1 68
e 1 73
e 1 77
e 1 82
e 1 83
e 1 90
e 1 99
e 1 100
e 2 3
e 2 4
e 2 5
e 2 6
e 2 7
e 2 8
e 2 9
e 2 11
e 2 12
e 2 13
e 2 15
e 2 17
e 2 21
e 2 23
e 2 24
e 2 29
e 2 33
e 2 37
e 2 41
e 2 46
e 2 49
e 2 50
e 2 57
e 2 67
e 2 71
e 2 84
e 2 91
e 2 93
e 2 96
e 3 4
e 3 5
e 3 6
e 3 7
e 3 8
e 3 11
e 3 12
e 3 14
e 3 25
e 3 26
e 3 27
e 3 28
e 3 30
e 3 34
e 3 36
e 3 37
e 3 40
e 3 44
e 3 47
e 3 73
e 3 75
e 3 76
e 3 84
e 3 87
e 3 89
e 3 92
e 3 99
e 4 5
e 4 6
e 4 7
e 4 8
e 4 10
e 4 11
e 4 12
e 4 13
e 4 18
e 4 20
e 4 22
e 4 23
e 4 27
e 4 30
e 4 32
e 4 36
e 4 49
e 4 50
e 4 54
e 4 62
e 4 63
e 4 74
e 4 76
e 4 83
e 4 89
e 5 6
e 5 7
e 5 9
e 5 10
e 5 12
e 5 14
e 5 15
e 5 17
e 5 21
e 5 23
e 5 27
e 5 29
e 5 30
e 5 45
e 5 52
e 5 53
e 5 58
e 5 59
e 5 65
e 5 69
e 5 80
e 5 85
e 5 96
e 6 7
e 6 8
e 6 11
e 6 15
e 6 22
e 6 24
e 6 27
e 6 28
e 6 39
e 6 42
e 6 43
e 6 51
e 6 56
e 6 63
e 6 79
e 6 88
e 6 92
e 6 94
e 7 10
e 7 12
e 7 16
e 7 17
e 7 21
e 7 22
e 7 24
e 7 25
e 7 27
e 7 29
e 7 38
e 7 40
e 7 58
e 7 73
e 7 75
e 7 77
e 7 82
e 7 94
e 8 9
e 8 14
e 8 15
e 8 17
e 8 20
e 8 25
e 8 33
e 8 35
e 8 44
e 8 52
e 8 56
e 8 58
e 8 61
e 8 64
e 8 75
e 8 78
e 8 86
e 8 91
e 9 10
e 9 11
e 9 15
e 9 16
e 9 24
e 9 30
e 9 32
e 9 33
e 9 45
e 9 60
e 9 63
e 9 68
e 9 70
e 9 71
e 9 90
e 9 94
e 9 96
e 10 14
e 10 16
e 10 17
e 10 19
e 10 20
e 10 22
e 10 31
e 10 32
e 10 41
e 10 44
e 10 51
e 10 64
e 10 69
e 10 71
e 10 79
e 11 13
e 11 18
e 11 21
e 11 28
e 11 45
e 11 48
e 11 52
e 11 56
e 11 61
e 11 68
e 11 87
e 11 89
e 11 92
e 12 13
e 12 18
e 12 19
e 12 20
e 12 21
e 12 28
e 12 39
e 12 51
e 12 52
e 12 60
e 12 66
e 12 95
e 12 97
e 13 20
e 13 23
e 13 25
e 13 38
e 13 45
e 13 46
e 13 54
e 13 58
e 13 61
e 13 68
e 13 72
e 13 89
e 13 99
e 14 21
e 14 22
e 14 44
e 14 46
e 14 47
e 14 62
e 14 63
e 14 68
e 14 70
e 14 71
e 14 81
e 14 84
e 14 95
e 15 16
e 15 18
e 15 24
e 15 26
e 15 40
e 15 51
e 15 62
e 15 65
e 15 69
e 15 76
e 15 80
e 15 82
e 16 18
e 16 28
e 16 31
e 16 34
e 16 38
e 16 47
e 16 48
e 16 59
e 16 61
e 16 72
e 16 75
e 16 88
e 17 40
e 17 48
e 17 49
e 17 55
e 17 62
e 17 84
e 17 86
e 17 99
e 18 30
e 18 32
e 18 38
e 18 41
e 18 44
e 18 57
e 18 95
e 19 21
e 19 27
e 19 29
e 19 31
e 19 35
e 19 53
e 19 57
e 19 60
e 19 67
e 19 74
e 20 41
e 20 55
e 20 63
e 20 66
e 20 73
e 20 90
e 20 97
e 20 98
e 21 26
e 21 34
e 21 47
e 21 80
e 21 95
e 22 46
e 22 50
e 22 55
e 22 61
e 22 66
e 22 89
e 22 97
e 23 25
e 23 48
e 23 49
e 23 56
e 23 72
e 23 78
e 23 84
e 23 85
e 24 33
e 24 43
e 24 64
e 24 77
e 24 81
e 24 90
e 24 99
e 25 29
e 25 32
e 25 39
e 25 52
e 25 56
e 25 74
e 26 28
e 26 31
e 26 33
e 26 73
e 26 77
e 26 83
e 26 92
e 27 37
e 27 39
e 27 64
e 27 67
e 28 39
e 28 47
e 28 70
e 28 71
e 29 38
e 29 40
e 29 64
e 29 80
e 29 83
e 30 34
e 30 57
e 30 67
e 30 69
e 30 78
e 31 53
e 31 82
e 31 88
e 31 91
e 31 92
e 32 42
e 32 77
e 32 78
e 33 48
e 33 79
e 33 81
e 33 97
e 34 38
e 34 42
e 34 59
e 34 76
e 34 78
e 35 37
e 35 48
e 35 50
e 35 67
e 35 70
e 35 96
e 35 100
e 36 44
e 36 46
e 36 54
e 36 72
e 36 87
e 36 88
e 36 93
e 37 45
e 37 54
e 37 86
e 38 65
e 38 91
e 39 49
e 39 57
e 39 94
e 40 66
e 40 93
e 40 100
e 41 43
e 41 54
e 41 75
e 42 55
e 42 60
e 42 63
e 42 87
e 43 53
e 43 54
e 43 74
e 43 85
e 43 87
e 44 50
e 45 51
e 46 79
e 47 62
e 47 90
e 48 54
e 49 72
e 49 81
e 50 81
e 51 53
e 51 100
e 52 59
e 52 70
e 53 85
e 55 65
e 55 86
e 55 91
e 56 83
e 56 88
e 57 85
e 57 98
e 58 61
e 58 82
e 58 94
e 59 74
e 59 98
e 60 71
e 60 93
e 60 96
e 62 97
e 64 65
e 66 86
e 67 80
e 68 69
e 69 79
e 70 98
e 72 100
e 73 93
e 74 76
e 75 95
e 76 98
n 9 2
n 17 3
n 25 7
n 38 5
n 42 1
n 43 10
n 44 8
n 77 4
n 83 9
n 93 6
